c description: Random 3-CNF over 21 variables and 89 clauses
c generator: CNFgen (0.9.2)
c copyright: (C) 2012-2022 Massimo Lauria <massimo.lauria@uniroma1.it>
c url: https://massimolauria.net/cnfgen
c command line: cnfgen --output CNF_4.28/21_bit_89_215.cnf randkcnf 3 21 89
c
p cnf 21 89
1 -7 21 0
-5 -12 -19 0
-4 5 13 0
-8 -14 -15 0
-1 -3 6 0
4 -11 -18 0
1 -12 -15 0
-12 14 -15 0
-2 -6 12 0
-12 -13 17 0
7 15 -21 0
-3 -8 21 0
3 7 -15 0
-1 10 -15 0
-2 13 19 0
7 -11 17 0
8 13 16 0
-3 -4 12 0
-12 15 -19 0
-1 -11 -15 0
-7 -8 19 0
-6 -11 -20 0
5 -17 -18 0
-2 -7 14 0
10 15 18 0
2 6 12 0
1 4 -14 0
-2 -20 21 0
-3 -12 -15 0
-3 8 9 0
-3 8 14 0
6 12 20 0
-12 -13 18 0
3 -9 -10 0
4 8 17 0
2 -3 21 0
-8 15 17 0
6 -10 -14 0
-3 -4 7 0
10 14 16 0
-1 13 -14 0
-4 -5 14 0
8 9 -16 0
-8 -10 -20 0
6 -13 -19 0
2 -14 -18 0
3 -8 17 0
-5 8 -9 0
-5 10 18 0
-12 13 17 0
7 -11 -13 0
-4 10 -17 0
-5 10 -21 0
16 -17 18 0
2 12 -21 0
-1 2 10 0
1 -2 17 0
5 6 -18 0
11 -12 -17 0
-15 -17 -20 0
-3 5 -16 0
8 -13 -19 0
-2 9 -11 0
11 12 14 0
12 16 18 0
9 16 -18 0
-6 13 20 0
16 20 -21 0
-2 8 12 0
-6 -8 -9 0
6 -11 13 0
6 9 19 0
-13 -14 -15 0
4 6 -15 0
2 -3 -18 0
-4 6 19 0
-7 -12 16 0
1 2 -6 0
-1 6 18 0
-2 -3 -9 0
4 10 17 0
-2 -4 8 0
1 15 21 0
14 -18 19 0
1 12 16 0
1 -5 -7 0
4 6 7 0
4 -11 17 0
-9 12 20 0
